Na  V  P  O 
 1.0000000000000000
     6.4074689713884423    0.0002902854680620   -3.4487104279997616
     0.0001561044495866    7.1571349167249254   -0.0002514343239076
    -0.4684869514711241   -0.0003362650146301    7.8962235912042118
 Na  V   P   O  
   1   4   4  20
Cartesian
  2.9694129577338657 -3.5785904481357464  2.2238822987641789
  1.1595105236192353  5.5144798620158628  6.6769280531986990
  4.5454038780018955  1.9359558557053880  1.7181311332263558
  4.7795986307061078  1.6425862797195823 -2.2296345132907542
  1.3937130911079365  5.2210685994214305  2.7291405172559910
  1.4971130343457604  0.8127452212092914  1.0759881460253202
  4.6762700662614405  4.3914389829517697 -0.5768483679142760
  4.4420170940556813  6.3443735064938771  3.3711435954991051
  1.2629038123227156  2.7657071907804731  5.0241351433042025
  1.3658479690863503  7.0538160632196272  2.3316084852120160
  4.8078024843389526  3.4753019260654567 -1.8324330422480186
  4.5733029945549371  0.1031267850710872  2.1157525582377801
  1.1313643809851137  3.6816714199106819  6.2797141447443989
  4.4411716530948446  2.5117997355778514  3.1972252629544324
  1.2637915746707571  6.0903608300563770  5.1977352151567588
  1.4979458881847918  4.6452839555339986  1.2500053157788158
  4.6753361743806687  1.0667179404386065 -0.7504934032209511
  3.4645389013507799  5.3183473742793081 -0.7316191243011612
  2.7087716006601399  1.7398861140273547  1.2302921824487487
  2.4745973518276640  1.8388024914677712  5.1788685564263073
  3.2304417361395639  5.4172550421613792  3.2169531623823762
  1.3982071421358309  3.6077855268471870  3.7391294465641343
  4.3065332549871558  0.0291099015538539  4.6565876797829038
  4.5409217628718332  3.5493945701742193  0.7081444252510711
  1.6325724485592203  7.1280140866861768 -0.2093249720971746
  5.9235252526599256  5.2951874483092984 -0.4710823684802836
  0.2497106897413232  1.7162083325558055  0.9701657162032021
  0.0156698544003860  1.8619486867557216  4.9183431978306098
  5.6893509645727116  5.4408713918437304  3.4771001621731430
